AES/1_3_4/ssaes_r1-20_c3_rw1_e4_f0_k1-20_aes_min_box_aes_mc_bidirectional/ExperimentMinisat_r2_k1cnf_2011-10-29-153349/Result
WARNING: for repeatability, setting FPU to use double precision
============================[ Problem Statistics ]=============================
|                                                                             |
|  Number of variables:           148                                         |
|  Number of clauses:             512                                         |
|  Parse time:                   0.00 s                                       |
|  Eliminated clauses:           0.00 Mb                                      |
|  Simplification time:          0.00 s                                       |
|                                                                             |
=============================[ Search Statistics ]==============================
| Conflicts  |          ORIGINAL         |          LEARNT          | Progress |
|            |    Vars  Clauses Literals |    Limit  Clauses Lit/Cl |          |
================================================================================
|        100 |      80      344     1136 |      126      100      8 | 21.635 % |
|        250 |      80      344     1136 |      138      164      6 | 21.631 % |
===============================================================================
restarts              : 3
conflicts             : 329            (65813 /sec)
decisions             : 353            (0.00 % random) (70614 /sec)
propagations          : 12031          (2406681 /sec)
conflict literals     : 2092           (36.70 % deleted)
Memory used           : 8.00 MB
CPU time              : 0.004999 s

SATISFIABLE
